(set-info :smt-lib-version 2.6)
(set-logic QF_NIA)
(set-info :source |
Generated by: Cristina Borralleras, Daniel Larraz, Albert Oliveras, Enric Rodriguez-Carbonell, Albert Rubio
Generated on: 2017-04-27
Generator: VeryMax
Application: Termination proving
Target solver: barcelogic
|)
(set-info :license "https://creativecommons.org/licenses/by/4.0/")
(set-info :category "industrial")
(set-info :status unsat)
(declare-fun Nl2main_i1 () Int)
(declare-fun Nl2main_range1 () Int)
(declare-fun Nl2main_up1 () Int)
(declare-fun lam0n0 () Int)
(declare-fun lam0n1 () Int)
(declare-fun lam0n2 () Int)
(declare-fun lam0n3 () Int)
(declare-fun lam0n4 () Int)
(declare-fun lam0n7 () Int)
(declare-fun lam0n6 () Int)
(declare-fun Nl2CT1 () Int)
(declare-fun lam0n5 () Int)
(declare-fun lam1n0 () Int)
(declare-fun lam1n1 () Int)
(declare-fun lam1n2 () Int)
(declare-fun lam1n3 () Int)
(declare-fun lam1n4 () Int)
(declare-fun lam1n7 () Int)
(declare-fun lam1n6 () Int)
(declare-fun lam1n5 () Int)
(declare-fun lam2n0 () Int)
(declare-fun lam2n1 () Int)
(declare-fun lam2n2 () Int)
(declare-fun lam2n3 () Int)
(declare-fun lam2n4 () Int)
(declare-fun lam2n5 () Int)
(declare-fun lam2n7 () Int)
(declare-fun lam2n6 () Int)
(declare-fun lam3n0 () Int)
(declare-fun lam3n1 () Int)
(declare-fun lam3n2 () Int)
(declare-fun lam3n3 () Int)
(declare-fun lam3n4 () Int)
(declare-fun lam3n5 () Int)
(declare-fun lam3n7 () Int)
(declare-fun lam3n6 () Int)
(declare-fun lam6n0 () Int)
(declare-fun lam6n1 () Int)
(declare-fun lam6n2 () Int)
(declare-fun lam6n3 () Int)
(declare-fun lam6n4 () Int)
(declare-fun lam6n7 () Int)
(declare-fun lam6n6 () Int)
(declare-fun RFN1_CT () Int)
(declare-fun RFN1_main_i () Int)
(declare-fun RFN1_main_up () Int)
(declare-fun lam6n5 () Int)
(declare-fun RFN1_main_range () Int)
(declare-fun lam9n0 () Int)
(declare-fun lam9n1 () Int)
(declare-fun lam9n2 () Int)
(declare-fun lam9n3 () Int)
(declare-fun lam9n4 () Int)
(declare-fun lam9n5 () Int)
(declare-fun lam9n7 () Int)
(declare-fun lam9n6 () Int)
(declare-fun lam4n0 () Int)
(declare-fun lam4n1 () Int)
(declare-fun lam4n2 () Int)
(declare-fun lam4n3 () Int)
(declare-fun lam4n4 () Int)
(declare-fun lam4n7 () Int)
(declare-fun lam4n6 () Int)
(declare-fun lam4n5 () Int)
(declare-fun lam5n0 () Int)
(declare-fun lam5n1 () Int)
(declare-fun lam5n2 () Int)
(declare-fun lam5n3 () Int)
(declare-fun lam5n4 () Int)
(declare-fun lam5n7 () Int)
(declare-fun lam5n6 () Int)
(declare-fun lam5n5 () Int)
(declare-fun lam10n0 () Int)
(declare-fun lam10n1 () Int)
(declare-fun lam10n2 () Int)
(declare-fun lam10n3 () Int)
(declare-fun lam10n4 () Int)
(declare-fun lam10n7 () Int)
(declare-fun lam10n6 () Int)
(declare-fun lam10n5 () Int)
(assert ( and ( <= ( - 1 ) Nl2main_i1 ) ( <= Nl2main_i1 1 ) ( <= ( - 1 ) Nl2main_range1 ) ( <= Nl2main_range1 1 ) ( <= ( - 1 ) Nl2main_up1 ) ( <= Nl2main_up1 1 ) ))
(assert ( or ( and ( >= lam0n0 0 ) ( >= lam0n1 0 ) ( >= lam0n2 0 ) ( >= lam0n3 0 ) ( >= lam0n4 0 ) ( >= lam0n7 0 ) ( > ( + ( * ( - 1 ) lam0n4 ) ( * 1 lam0n6 ) ( * Nl2CT1 lam0n7 ) ( - 1 ) ) 0 ) ( = ( + ( * ( - 1 ) lam0n0 ) ( * ( - 1 ) lam0n1 ) ( * ( - 1 ) lam0n2 ) ( * 1 lam0n5 ) ( * 1 lam0n6 ) ( * Nl2main_i1 lam0n7 ) ) 0 ) ( = ( + ( * ( - 1 ) lam0n0 ) ( * ( - 1 ) lam0n1 ) ( * ( - 1 ) lam0n6 ) ( * Nl2main_range1 lam0n7 ) ) 0 ) ( = ( + ( * 1 lam0n1 ) ( * ( - 1 ) lam0n2 ) ( * ( - 1 ) lam0n3 ) ( * 1 lam0n4 ) ( * Nl2main_up1 lam0n7 ) ) 0 ) ) ( and ( >= lam1n0 0 ) ( >= lam1n1 0 ) ( >= lam1n2 0 ) ( >= lam1n3 0 ) ( >= lam1n4 0 ) ( >= lam1n7 0 ) ( > ( + ( * ( - 1 ) lam1n4 ) ( * 1 lam1n6 ) ( * Nl2CT1 lam1n7 ) ( - 1 ( + ( + Nl2CT1 ( * Nl2main_i1 1 ) ) ( * Nl2main_up1 1 ) ) ) ) 0 ) ( = ( + ( * ( - 1 ) lam1n0 ) ( * ( - 1 ) lam1n1 ) ( * ( - 1 ) lam1n2 ) ( * 1 lam1n5 ) ( * 1 lam1n6 ) ( * Nl2main_i1 lam1n7 ) ( - ( + 0 ( * Nl2main_i1 1 ) ) ) ) 0 ) ( = ( + ( * ( - 1 ) lam1n0 ) ( * ( - 1 ) lam1n1 ) ( * ( - 1 ) lam1n6 ) ( * Nl2main_range1 lam1n7 ) ( - ( + 0 Nl2main_range1 ) ) ) 0 ) ( = ( + ( * 1 lam1n1 ) ( * ( - 1 ) lam1n2 ) ( * ( - 1 ) lam1n3 ) ( * 1 lam1n4 ) ( * Nl2main_up1 lam1n7 ) ) 0 ) ) ))
(assert ( or ( and ( >= lam2n0 0 ) ( >= lam2n1 0 ) ( >= lam2n2 0 ) ( >= lam2n3 0 ) ( >= lam2n4 0 ) ( >= lam2n5 0 ) ( >= lam2n7 0 ) ( > ( + ( * 1 lam2n3 ) ( * 1 lam2n4 ) ( * ( - 1 ) lam2n5 ) ( * Nl2CT1 lam2n7 ) ( - 1 ) ) 0 ) ( = ( + ( * ( - 1 ) lam2n0 ) ( * ( - 1 ) lam2n1 ) ( * ( - 1 ) lam2n3 ) ( * ( - 1 ) lam2n4 ) ( * 1 lam2n6 ) ( * Nl2main_i1 lam2n7 ) ) 0 ) ( = ( + ( * ( - 1 ) lam2n0 ) ( * ( - 1 ) lam2n4 ) ( * ( - 1 ) lam2n6 ) ( * Nl2main_range1 lam2n7 ) ) 0 ) ( = ( + ( * 1 lam2n0 ) ( * ( - 1 ) lam2n1 ) ( * ( - 1 ) lam2n2 ) ( * 1 lam2n5 ) ( * Nl2main_up1 lam2n7 ) ) 0 ) ) ( and ( >= lam3n0 0 ) ( >= lam3n1 0 ) ( >= lam3n2 0 ) ( >= lam3n3 0 ) ( >= lam3n4 0 ) ( >= lam3n5 0 ) ( >= lam3n7 0 ) ( > ( + ( * 1 lam3n3 ) ( * 1 lam3n4 ) ( * ( - 1 ) lam3n5 ) ( * Nl2CT1 lam3n7 ) ( - 1 ( + ( + Nl2CT1 ( * Nl2main_i1 ( - 1 ) ) ) ( * Nl2main_up1 0 ) ) ) ) 0 ) ( = ( + ( * ( - 1 ) lam3n0 ) ( * ( - 1 ) lam3n1 ) ( * ( - 1 ) lam3n3 ) ( * ( - 1 ) lam3n4 ) ( * 1 lam3n6 ) ( * Nl2main_i1 lam3n7 ) ( - ( + 0 ( * Nl2main_i1 1 ) ) ) ) 0 ) ( = ( + ( * ( - 1 ) lam3n0 ) ( * ( - 1 ) lam3n4 ) ( * ( - 1 ) lam3n6 ) ( * Nl2main_range1 lam3n7 ) ( - ( + 0 Nl2main_range1 ) ) ) 0 ) ( = ( + ( * 1 lam3n0 ) ( * ( - 1 ) lam3n1 ) ( * ( - 1 ) lam3n2 ) ( * 1 lam3n5 ) ( * Nl2main_up1 lam3n7 ) ) 0 ) ) ))
(assert ( and ( or ( and ( >= lam0n0 0 ) ( >= lam0n1 0 ) ( >= lam0n2 0 ) ( >= lam0n3 0 ) ( >= lam0n4 0 ) ( >= lam0n7 0 ) ( > ( + ( * ( - 1 ) lam0n4 ) ( * 1 lam0n6 ) ( * Nl2CT1 lam0n7 ) ( - 1 ) ) 0 ) ( = ( + ( * ( - 1 ) lam0n0 ) ( * ( - 1 ) lam0n1 ) ( * ( - 1 ) lam0n2 ) ( * 1 lam0n5 ) ( * 1 lam0n6 ) ( * Nl2main_i1 lam0n7 ) ) 0 ) ( = ( + ( * ( - 1 ) lam0n0 ) ( * ( - 1 ) lam0n1 ) ( * ( - 1 ) lam0n6 ) ( * Nl2main_range1 lam0n7 ) ) 0 ) ( = ( + ( * 1 lam0n1 ) ( * ( - 1 ) lam0n2 ) ( * ( - 1 ) lam0n3 ) ( * 1 lam0n4 ) ( * Nl2main_up1 lam0n7 ) ) 0 ) ) ( and ( >= lam6n0 0 ) ( >= lam6n1 0 ) ( >= lam6n2 0 ) ( >= lam6n3 0 ) ( >= lam6n4 0 ) ( >= lam6n7 0 ) ( > ( + ( * ( - 1 ) lam6n4 ) ( * 1 lam6n6 ) ( * Nl2CT1 lam6n7 ) ( - 1 ( - ( + ( + RFN1_CT ( * RFN1_main_i 1 ) ) ( * RFN1_main_up 1 ) ) RFN1_CT ) ) ) 0 ) ( = ( + ( * ( - 1 ) lam6n0 ) ( * ( - 1 ) lam6n1 ) ( * ( - 1 ) lam6n2 ) ( * 1 lam6n5 ) ( * 1 lam6n6 ) ( * Nl2main_i1 lam6n7 ) ( - ( - ( + 0 ( * RFN1_main_i 1 ) ) RFN1_main_i ) ) ) 0 ) ( = ( + ( * ( - 1 ) lam6n0 ) ( * ( - 1 ) lam6n1 ) ( * ( - 1 ) lam6n6 ) ( * Nl2main_range1 lam6n7 ) ( - ( - ( + 0 RFN1_main_range ) RFN1_main_range ) ) ) 0 ) ( = ( + ( * 1 lam6n1 ) ( * ( - 1 ) lam6n2 ) ( * ( - 1 ) lam6n3 ) ( * 1 lam6n4 ) ( * Nl2main_up1 lam6n7 ) ( - ( - RFN1_main_up ) ) ) 0 ) ) ) ( or ( and ( >= lam2n0 0 ) ( >= lam2n1 0 ) ( >= lam2n2 0 ) ( >= lam2n3 0 ) ( >= lam2n4 0 ) ( >= lam2n5 0 ) ( >= lam2n7 0 ) ( > ( + ( * 1 lam2n3 ) ( * 1 lam2n4 ) ( * ( - 1 ) lam2n5 ) ( * Nl2CT1 lam2n7 ) ( - 1 ) ) 0 ) ( = ( + ( * ( - 1 ) lam2n0 ) ( * ( - 1 ) lam2n1 ) ( * ( - 1 ) lam2n3 ) ( * ( - 1 ) lam2n4 ) ( * 1 lam2n6 ) ( * Nl2main_i1 lam2n7 ) ) 0 ) ( = ( + ( * ( - 1 ) lam2n0 ) ( * ( - 1 ) lam2n4 ) ( * ( - 1 ) lam2n6 ) ( * Nl2main_range1 lam2n7 ) ) 0 ) ( = ( + ( * 1 lam2n0 ) ( * ( - 1 ) lam2n1 ) ( * ( - 1 ) lam2n2 ) ( * 1 lam2n5 ) ( * Nl2main_up1 lam2n7 ) ) 0 ) ) ( and ( >= lam9n0 0 ) ( >= lam9n1 0 ) ( >= lam9n2 0 ) ( >= lam9n3 0 ) ( >= lam9n4 0 ) ( >= lam9n5 0 ) ( >= lam9n7 0 ) ( > ( + ( * 1 lam9n3 ) ( * 1 lam9n4 ) ( * ( - 1 ) lam9n5 ) ( * Nl2CT1 lam9n7 ) ( - 1 ( - ( + ( + RFN1_CT ( * RFN1_main_i ( - 1 ) ) ) ( * RFN1_main_up 0 ) ) RFN1_CT ) ) ) 0 ) ( = ( + ( * ( - 1 ) lam9n0 ) ( * ( - 1 ) lam9n1 ) ( * ( - 1 ) lam9n3 ) ( * ( - 1 ) lam9n4 ) ( * 1 lam9n6 ) ( * Nl2main_i1 lam9n7 ) ( - ( - ( + 0 ( * RFN1_main_i 1 ) ) RFN1_main_i ) ) ) 0 ) ( = ( + ( * ( - 1 ) lam9n0 ) ( * ( - 1 ) lam9n4 ) ( * ( - 1 ) lam9n6 ) ( * Nl2main_range1 lam9n7 ) ( - ( - ( + 0 RFN1_main_range ) RFN1_main_range ) ) ) 0 ) ( = ( + ( * 1 lam9n0 ) ( * ( - 1 ) lam9n1 ) ( * ( - 1 ) lam9n2 ) ( * 1 lam9n5 ) ( * Nl2main_up1 lam9n7 ) ( - ( - RFN1_main_up ) ) ) 0 ) ) ) ))
(assert ( and ( and ( and ( >= lam4n0 0 ) ( >= lam4n1 0 ) ( >= lam4n2 0 ) ( >= lam4n3 0 ) ( >= lam4n4 0 ) ( >= lam4n7 0 ) ( > ( + ( * ( - 1 ) lam4n4 ) ( * 1 lam4n6 ) ( * Nl2CT1 lam4n7 ) ( - 1 ( - RFN1_CT ) ) ) 0 ) ( = ( + ( * ( - 1 ) lam4n0 ) ( * ( - 1 ) lam4n1 ) ( * ( - 1 ) lam4n2 ) ( * 1 lam4n5 ) ( * 1 lam4n6 ) ( * Nl2main_i1 lam4n7 ) ( - ( - RFN1_main_i ) ) ) 0 ) ( = ( + ( * ( - 1 ) lam4n0 ) ( * ( - 1 ) lam4n1 ) ( * ( - 1 ) lam4n6 ) ( * Nl2main_range1 lam4n7 ) ( - ( - RFN1_main_range ) ) ) 0 ) ( = ( + ( * 1 lam4n1 ) ( * ( - 1 ) lam4n2 ) ( * ( - 1 ) lam4n3 ) ( * 1 lam4n4 ) ( * Nl2main_up1 lam4n7 ) ( - ( - RFN1_main_up ) ) ) 0 ) ) ( and ( >= lam5n0 0 ) ( >= lam5n1 0 ) ( >= lam5n2 0 ) ( >= lam5n3 0 ) ( >= lam5n4 0 ) ( >= lam5n7 0 ) ( > ( + ( * ( - 1 ) lam5n4 ) ( * 1 lam5n6 ) ( * Nl2CT1 lam5n7 ) ( - 1 ( + ( - ( + ( + RFN1_CT ( * RFN1_main_i 1 ) ) ( * RFN1_main_up 1 ) ) RFN1_CT ) 1 ) ) ) 0 ) ( = ( + ( * ( - 1 ) lam5n0 ) ( * ( - 1 ) lam5n1 ) ( * ( - 1 ) lam5n2 ) ( * 1 lam5n5 ) ( * 1 lam5n6 ) ( * Nl2main_i1 lam5n7 ) ( - ( - ( + 0 ( * RFN1_main_i 1 ) ) RFN1_main_i ) ) ) 0 ) ( = ( + ( * ( - 1 ) lam5n0 ) ( * ( - 1 ) lam5n1 ) ( * ( - 1 ) lam5n6 ) ( * Nl2main_range1 lam5n7 ) ( - ( - ( + 0 RFN1_main_range ) RFN1_main_range ) ) ) 0 ) ( = ( + ( * 1 lam5n1 ) ( * ( - 1 ) lam5n2 ) ( * ( - 1 ) lam5n3 ) ( * 1 lam5n4 ) ( * Nl2main_up1 lam5n7 ) ( - ( - RFN1_main_up ) ) ) 0 ) ) ) ( and ( >= lam10n0 0 ) ( >= lam10n1 0 ) ( >= lam10n2 0 ) ( >= lam10n3 0 ) ( >= lam10n4 0 ) ( >= lam10n7 0 ) ( > ( + ( * ( - 1 ) lam10n4 ) ( * 1 lam10n6 ) ( * ( + ( - Nl2CT1 ) 1 ) lam10n7 ) ( - 1 ) ) 0 ) ( = ( + ( * ( - 1 ) lam10n0 ) ( * ( - 1 ) lam10n1 ) ( * ( - 1 ) lam10n2 ) ( * 1 lam10n5 ) ( * 1 lam10n6 ) ( * ( - Nl2main_i1 ) lam10n7 ) ) 0 ) ( = ( + ( * ( - 1 ) lam10n0 ) ( * ( - 1 ) lam10n1 ) ( * ( - 1 ) lam10n6 ) ( * ( - Nl2main_range1 ) lam10n7 ) ) 0 ) ( = ( + ( * 1 lam10n1 ) ( * ( - 1 ) lam10n2 ) ( * ( - 1 ) lam10n3 ) ( * 1 lam10n4 ) ( * ( - Nl2main_up1 ) lam10n7 ) ) 0 ) ) ))
(check-sat)
(exit)
